; benchmark generated from python API
(set-info :status unknown)
(declare-datatypes ((IntState 0)) (((Mk1 (val1 Int)) (Mk2 (val2 Int)))))
 (declare-fun c_main_~i~6 () Int)
(declare-fun c_main_~j~6 () Int)
(declare-fun c_main_~k~6 () Int)
(assert
 (let (($x173 (<= c_main_~i~6 3)))
 (let (($x48 (exists ((v_nnf_96_st IntState) (val!95 Int) )(let ((?x56 (val2 v_nnf_96_st)))
 (let (($x136 (<= ?x56 4)))
 (let (($x157 (and (<= (+ ?x56 2) c_main_~k~6) (<= c_main_~j~6 (+ (* 2 ?x56) 2)) $x136)))
 (let (($x52 (not (= v_nnf_96_st (Mk1 val!95)))))
 (and $x52 $x157))))))
 ))
 (let (($x137 (<= c_main_~i~6 4)))
 (let (($x11 (<= c_main_~j~6 (+ (* 2 c_main_~i~6) 1))))
 (let (($x62 (exists ((v_nnf_96 Int) )(let (($x92 (<= v_nnf_96 4)))
 (and (<= (+ v_nnf_96 2) c_main_~k~6) (<= c_main_~j~6 (+ (* 2 v_nnf_96) 2)) $x92)))
 ))
 (let (($x145 (<= c_main_~j~6 (+ (* 2 c_main_~i~6) 2))))
 (and (and $x11 $x137 $x145 $x62 $x173) (not (and $x11 $x137 $x48 $x173))))))))))
(check-sat)
